\ LP format - for model browsing. Use MPS format to capture full model detail.
Minimize
 
Subject To
 R_0_0: x_2 + x_10 = 1
 R_0_1: x_3 + x_6 + x_9 = 1
 R_0_2: x_1 + x_7 + x_10 + x_11 = 1
 R_0_3: x_0 + x_4 + x_5 = 1
 R_0_4: x_0 + x_1 + x_2 + x_8 = 1
 R_0_5: x_0 + x_1 + x_2 + x_10 = 1
 R_1_0: x_2 = 1
 R_1_1: x_3 + x_7 + x_11 = 1
 R_1_2: x_1 + x_6 + x_9 = 1
 R_1_3: x_0 + x_4 + x_5 = 1
 R_1_4: x_3 + x_4 + x_5 = 1
 R_1_5: x_3 + x_4 + x_5 + x_8 + x_10 = 1
 R_2_0: x_6 + x_11 = 1
 R_2_1: x_7 + x_11 = 1
 R_2_2: x_7 + x_10 + x_11 = 1
 R_2_3: x_7 + x_8 + x_9 = 1
 R_2_4: x_0 + x_2 + x_3 + x_5 + x_8 = 1
 R_2_5: x_1 + x_4 + x_8 = 1
 R_3_0: x_6 + x_10 + x_11 = 1
 R_3_1: x_6 + x_9 = 1
 R_3_2: x_6 + x_9 = 1
 R_3_3: x_7 + x_8 + x_9 = 1
 R_3_4: x_1 + x_4 = 1
 R_3_5: x_0 + x_2 + x_3 + x_5 = 1
 Asignacion_0: x_0 + x_1 + x_2 + x_10 = 1
 Asignacion_1: x_3 + x_4 + x_5 = 1
 Asignacion_2: x_7 + x_8 + x_11 = 1
 Asignacion_3: x_6 + x_9 = 1
Bounds
 x_0 <= 1
 x_1 <= 1
 x_2 <= 1
 x_3 <= 1
 x_4 <= 1
 x_5 <= 1
 x_6 <= 1
 x_7 <= 1
 x_8 <= 1
 x_9 <= 1
 x_10 <= 1
 x_11 <= 1
End
